c turning on binary mode checking
c parsing input formula with 202048 variables and 780985 clauses
c finished parsing, read 19477974 bytes from proof file
c detected empty clause; start verification via backward checking
c 30066 of 780985 clauses in core                            
c 45556 of 509235 lemmas in core using 415243 resolution steps
c 0 RAT lemmas in core; 4021 redundant literals in core lemmas
s VERIFIED
c verification time: 3.122 seconds
